data/solutions/planning/wellformed/intermediate/weighting/wellformed_intermediate_instance63_gurobi.sol
Elapsed time: 7.73
Nodes explored: 4008
Nodes left: 49
Relative gap: 0.0
Upper bound: 355560248.0
Lower bound: 355560248
C[0]=21703.0
C[1]=21703.0
C[2]=21703.0
C[3]=21703.0
C[4]=21703.0
C[5]=21703.0
C[6]=21703.0
C[7]=21703.0
C[8]=21703.0
C[9]=21703.0
C[10]=21703.0
C[11]=21703.0
C[12]=21703.0
C[13]=21702.0
y[0]=7
y[1]=11
y[2]=8
y[3]=8
y[4]=10
y[5]=3
y[6]=3
y[7]=5
y[8]=10
y[9]=1
y[10]=1
y[11]=10
y[12]=3
y[13]=13
y[14]=1
y[15]=5
y[16]=3
y[17]=8
y[18]=9
y[19]=12
y[20]=4
y[21]=4
y[22]=1
y[23]=8
y[24]=9
y[25]=8
y[26]=1
y[27]=9
y[28]=7
y[29]=13
y[30]=3
y[31]=4
y[32]=11
y[33]=5
y[34]=11
y[35]=13
y[36]=4
y[37]=2
y[38]=6
y[39]=7
y[40]=0
y[41]=9
y[42]=6
y[43]=1
y[44]=10
y[45]=9
y[46]=1
y[47]=12
y[48]=1
y[49]=3
y[50]=10
y[51]=8
y[52]=4
y[53]=4
y[54]=10
y[55]=5
y[56]=10
y[57]=8
y[58]=5
y[59]=3
y[60]=11
y[61]=9
y[62]=12
y[63]=0
y[64]=12
y[65]=3
y[66]=10
y[67]=6
y[68]=5
y[69]=10
y[70]=7
y[71]=8
y[72]=13
y[73]=1
y[74]=11
y[75]=11
y[76]=5
y[77]=7
y[78]=1
y[79]=12
y[80]=12
y[81]=7
y[82]=12
y[83]=1
y[84]=5
y[85]=3
y[86]=2
y[87]=6
y[88]=10
y[89]=0
y[90]=1
y[91]=6
y[92]=4
y[93]=4
y[94]=6
y[95]=7
y[96]=9
y[97]=5
y[98]=0
y[99]=10
y[100]=13
y[101]=10
y[102]=6
y[103]=1
y[104]=7
y[105]=11
y[106]=5
y[107]=4
y[108]=10
y[109]=4
y[110]=9
y[111]=3
y[112]=1
y[113]=5
y[114]=2
y[115]=0
y[116]=6
y[117]=9
y[118]=1
y[119]=12
y[120]=4
y[121]=2
y[122]=10
y[123]=13
y[124]=4
y[125]=6
y[126]=10
y[127]=13
y[128]=5
y[129]=8
y[130]=6
y[131]=9
y[132]=0
y[133]=10
y[134]=1
y[135]=1
y[136]=10
y[137]=13
y[138]=2
y[139]=1
y[140]=4
y[141]=6
y[142]=12
y[143]=5
y[144]=0
y[145]=10
y[146]=12
y[147]=6
y[148]=3
y[149]=11
y[150]=6
y[151]=5
y[152]=11
y[153]=13
y[154]=12
y[155]=10
y[156]=5
y[157]=11
y[158]=10
y[159]=2
y[160]=3
y[161]=6
y[162]=13
y[163]=3
y[164]=11
y[165]=5
y[166]=4
y[167]=10
y[168]=1
y[169]=13
y[170]=8
y[171]=4
y[172]=13
y[173]=1
y[174]=0
y[175]=1
y[176]=11
y[177]=1
y[178]=2
y[179]=6
y[180]=1
y[181]=6
y[182]=7
y[183]=4
y[184]=9
y[185]=2
y[186]=9
y[187]=1
y[188]=3
y[189]=2
y[190]=11
y[191]=2
y[192]=7
y[193]=8
y[194]=2
y[195]=2
y[196]=13
y[197]=6
y[198]=8
y[199]=7
y[200]=3
y[201]=10
y[202]=1
y[203]=2
y[204]=10
y[205]=4
y[206]=6
y[207]=12
y[208]=10
y[209]=9
y[210]=2
y[211]=6
y[212]=6
y[213]=5
y[214]=6
y[215]=10
y[216]=10
y[217]=5
y[218]=8
y[219]=10
y[220]=12
y[221]=1
y[222]=6
y[223]=3
y[224]=6
y[225]=7
y[226]=8
y[227]=11
y[228]=3
y[229]=4
y[230]=6
y[231]=7
y[232]=2
y[233]=13
y[234]=1
y[235]=3
y[236]=3
y[237]=1
y[238]=9
y[239]=0
y[240]=4
y[241]=11
y[242]=9
y[243]=1
y[244]=10
y[245]=9
y[246]=6
y[247]=4
y[248]=11
y[249]=0
y[250]=0
y[251]=12
y[252]=0
y[253]=1
y[254]=4
y[255]=5
y[256]=11
y[257]=7
y[258]=12
y[259]=4
y[260]=3
y[261]=4
y[262]=10
y[263]=4
y[264]=6
y[265]=1
y[266]=9
y[267]=2
y[268]=6
y[269]=0
y[270]=1
y[271]=9
y[272]=0
y[273]=3
y[274]=0
y[275]=13
y[276]=13
y[277]=10
y[278]=8
y[279]=0
y[280]=11
y[281]=13
y[282]=3
y[283]=8
y[284]=6
y[285]=9
y[286]=10
y[287]=0
y[288]=13
y[289]=13
y[290]=10
y[291]=3
y[292]=1
y[293]=13
y[294]=6
y[295]=6
y[296]=7
y[297]=1
y[298]=1
y[299]=1
